\* Problem: Unknown *\

Maximize
 obj: + xp_0_0 + xp_1_0 + xp_1_1 + xp_2_0 + xp_3_0 + xp_3_1 + xp_4_0
 + xp_5_0 + xp_6_0 + xp_7_0 + xp_8_0 + xp_9_0 + xp_9_1 + xp_10_0
 + xp_11_0 + xp_11_1 + xp_12_0 + xp_12_1 + xp_13_0 + xp_14_0 + xp_14_1
 + xp_15_0 + xp_16_0 + xp_17_0 + xp_17_1 + xp_18_0 + xp_18_1 + xp_19_0
 + xp_19_1 + xp_20_0 + xp_21_0 + xp_22_0 + xp_23_0 + xp_24_0 + xp_24_1
 + xp_25_0 + xp_26_0 + xp_27_0 + xp_28_0 + xp_28_1 + xp_29_0 + xp_30_0
 + xp_30_1 + xp_31_0 + xp_32_0 + xp_32_1 + xp_32_2 + xp_33_0 + xp_34_0
 + xp_34_1 + xp_35_0 + xp_36_0 + xp_37_0 + xp_38_0 + xp_39_0 + xp_40_0
 + xp_40_1 + xp_41_0 + xp_42_0 + xp_42_1 + xp_43_0 + xp_44_0 + xp_45_0
 + xp_46_0 + xp_47_0 + xp_48_0 + xp_48_1 + xp_49_0 + xp_50_0 + xp_50_1
 + xp_51_0 + xp_52_0 + xp_53_0 + xp_54_0 + xp_55_0 + xp_56_0 + xp_57_0
 + xp_58_0 + xp_58_1 + xp_59_0 + xp_60_0 + xp_60_1 + xp_61_0 + xp_61_1
 + xp_62_0 + xp_63_0 + xp_63_1 + xp_64_0 + xp_65_0 + xp_66_0 + xp_67_0
 + xp_68_0 + xp_68_1 + xp_69_0 + xp_70_0 + xp_71_0 + xp_72_0 + xp_73_0
 + xp_74_0 + xp_75_0 + xp_76_0 + xp_77_0 + xp_77_1 + xp_78_0 + xp_78_1
 + xp_78_2 + xp_79_0 + xp_79_1 + xp_79_2 + xp_80_0 + xp_80_1 + xp_81_0
 + xp_82_0 + xp_83_0 + xp_84_0 + xp_85_0 + xp_85_1 + xp_86_0 + xp_86_1
 + xp_87_0 + xp_88_0 + xp_89_0 + xp_90_0 + xp_90_1 + xp_90_2 + xp_91_0
 + xp_91_1 + xp_91_2 + xp_92_0 + xp_93_0 + xp_94_0 + xp_95_0 + xp_96_0
 + xp_97_0 + xp_98_0 + xp_98_1 + xp_99_0 + xp_100_0 + xp_101_0
 + xp_102_0 + xp_103_0 + xp_104_0 + xp_105_0 + xp_106_0 + xp_107_0
 + xp_108_0 + xp_108_1 + xp_108_2 + xp_109_0 + xp_109_1 + xp_110_0
 + xp_111_0 + xp_112_0 + xp_113_0 + xp_114_0 + xp_115_0 + xp_115_1
 + xp_116_0 + xp_116_1 + xp_117_0 + xp_118_0 + xp_119_0 + xp_120_0
 + xp_120_1 + xp_121_0 + xp_122_0 + xp_123_0 + xp_124_0 + xp_125_0
 + xp_126_0 + xp_126_1 + xp_126_2 + xp_126_3 + xp_127_0 + xp_127_1
 + xp_128_0 + xp_128_1 + xp_129_0 + xp_129_1 + xp_130_0 + xp_131_0
 + xp_131_1

Subject To
 r_1: + xp_128_1 + xp_122_0 + xp_121_0 + xp_108_1 + xp_107_0 + xp_78_2
 + xp_40_1 + xp_25_0 + xp_18_0 + xp_16_0 + xp_4_0 <= 39648.3971044467
 r_2: + xp_131_1 + xp_127_1 + xp_126_1 + xp_120_0 + xp_93_0 + xp_90_2
 + xp_85_1 + xp_85_0 + xp_77_1 + xp_75_0 + xp_71_0 + xp_66_0 + xp_65_0
 + xp_61_1 + xp_55_0 + xp_52_0 + xp_48_1 + xp_48_0 + xp_42_1 + xp_32_2
 + xp_32_0 + xp_28_1 + xp_28_0 + xp_24_0 + xp_19_1 + xp_19_0 + xp_12_1
 + xp_1_1 <= 35798.3193277311
 r_3: + xp_126_3 + xp_114_0 + xp_95_0 + xp_91_1 + xp_79_1 + xp_76_0
 + xp_34_0 <= 40000
 r_4: + xp_117_0 + xp_91_2 + xp_91_0 + xp_84_0 + xp_79_2 + xp_79_0
 + xp_46_0 + xp_43_0 + xp_40_1 + xp_40_0 + xp_34_1 <= 37866.6666666667
 r_5: + xp_130_0 + xp_99_0 + xp_86_0 + xp_7_0 + xp_2_0 <= 40000
 r_6: + xp_126_3 + xp_126_2 + xp_119_0 + xp_114_0 + xp_95_0 + xp_91_1
 + xp_83_0 + xp_81_0 + xp_79_1 + xp_70_0 + xp_68_1 + xp_58_1 + xp_53_0
 + xp_48_1 + xp_45_0 + xp_34_0 + xp_32_2 + xp_32_1 + xp_30_1 + xp_18_0
 <= 40000
 r_7: + xp_104_0 + xp_88_0 + xp_82_0 + xp_78_1 + xp_50_1 + xp_44_0
 + xp_27_0 + xp_18_1 + xp_3_1 <= 37866.6666666667
 r_8: + xp_131_1 + xp_127_1 + xp_126_1 + xp_120_0 + xp_118_0 + xp_103_0
 + xp_90_2 + xp_77_1 + xp_71_0 + xp_61_1 + xp_55_0 + xp_42_1 + xp_32_2
 + xp_32_0 + xp_24_0 + xp_12_1 + xp_1_1 <= 39648.3971044467
 r_9: + xp_131_0 + xp_127_0 + xp_122_0 + xp_120_1 + xp_108_1 + xp_78_2
 + xp_77_0 + xp_42_0 + xp_33_0 + xp_32_1 + xp_24_1 <= 40000
 r_10: + xp_106_0 + xp_99_0 + xp_98_0 + xp_88_0 + xp_86_0 + xp_85_0
 + xp_78_1 + xp_50_1 + xp_26_0 + xp_24_0 + xp_8_0 + xp_7_0 + xp_3_1
 + xp_2_0 <= 40000
 r_11: + xp_119_0 + xp_112_0 + xp_111_0 + xp_95_0 + xp_91_1 + xp_81_0
 + xp_79_1 + xp_78_2 + xp_78_0 + xp_59_0 + xp_53_0 + xp_50_0 + xp_49_0
 + xp_45_0 + xp_34_0 + xp_18_0 + xp_4_0 + xp_3_0 <= 37263.8208537439
 r_12: + xp_129_0 + xp_128_0 + xp_123_0 + xp_117_0 + xp_108_2 + xp_101_0
 + xp_91_2 + xp_82_0 + xp_80_1 + xp_79_2 + xp_78_1 + xp_78_0 + xp_73_0
 + xp_63_1 + xp_60_0 + xp_50_1 + xp_46_0 + xp_44_0 + xp_40_0 + xp_18_1
 + xp_17_1 + xp_15_0 + xp_14_1 + xp_13_0 + xp_9_0 <= 36778.2691092862
 r_13: + xp_129_1 + xp_128_1 + xp_120_1 + xp_109_1 + xp_100_0 + xp_91_0
 + xp_90_0 + xp_80_0 + xp_79_0 + xp_68_0 + xp_63_0 + xp_60_1 + xp_40_1
 + xp_34_1 + xp_31_0 + xp_30_0 + xp_17_0 + xp_9_1 <= 37263.8208537439
 r_14: + xp_131_1 + xp_131_0 + xp_126_3 + xp_126_2 + xp_125_0 + xp_124_0
 + xp_115_1 + xp_115_0 + xp_98_1 + xp_94_0 + xp_86_1 + xp_85_1 + xp_77_1
 + xp_77_0 + xp_68_1 + xp_65_0 + xp_58_1 + xp_56_0 + xp_51_0 + xp_48_1
 + xp_41_0 + xp_38_0 + xp_35_0 + xp_32_2 + xp_32_1 + xp_30_1 + xp_24_1
 + xp_20_0 + xp_19_1 + xp_19_0 + xp_12_1 + xp_12_0 + xp_0_0
 <= 37866.6666666667
 r_15: + xp_131_1 + xp_131_0 + xp_126_3 + xp_126_2 + xp_125_0 + xp_124_0
 + xp_120_1 + xp_116_0 + xp_115_0 + xp_109_1 + xp_98_1 + xp_94_0
 + xp_90_0 + xp_89_0 + xp_86_1 + xp_85_1 + xp_77_1 + xp_77_0 + xp_68_1
 + xp_68_0 + xp_65_0 + xp_58_1 + xp_51_0 + xp_48_1 + xp_42_1 + xp_42_0
 + xp_38_0 + xp_36_0 + xp_32_2 + xp_32_1 + xp_28_1 + xp_24_1 + xp_19_1
 + xp_12_0 + xp_11_0 + xp_0_0 <= 36778.2691092862
 r_16: + xp_128_0 + xp_123_0 + xp_108_2 + xp_108_0 + xp_78_1 + xp_78_0
 + xp_73_0 + xp_67_0 + xp_57_0 + xp_46_0 + xp_44_0 + xp_40_0 + xp_22_0
 + xp_18_1 + xp_13_0 + xp_6_0 <= 36778.2691092862
 r_17: + xp_129_0 + xp_126_0 + xp_109_0 + xp_97_0 + xp_91_2 + xp_90_1
 + xp_80_1 + xp_79_2 + xp_63_1 + xp_62_0 + xp_61_0 + xp_60_0 + xp_47_0
 + xp_17_1 + xp_9_0 + xp_1_0 <= 35798.3193277311
 r_18: + xp_126_1 + xp_126_0 + xp_106_0 + xp_99_0 + xp_98_0 + xp_92_0
 + xp_86_0 + xp_85_0 + xp_68_0 + xp_58_0 + xp_48_0 + xp_32_0 + xp_30_0
 + xp_26_0 + xp_24_0 + xp_5_0 + xp_2_0 <= 37263.8208537439
 r_19: + xp_116_1 + xp_115_1 + xp_110_0 + xp_108_2 + xp_78_0 + xp_56_0
 + xp_28_0 + xp_19_0 + xp_14_1 + xp_12_1 + xp_11_1 + xp_3_0
 <= 37263.8208537439
 r_20: + xp_129_1 + xp_128_1 + xp_119_0 + xp_112_0 + xp_111_0 + xp_108_1
 + xp_108_0 + xp_107_0 + xp_95_0 + xp_91_1 + xp_91_0 + xp_81_0 + xp_80_0
 + xp_79_1 + xp_79_0 + xp_78_2 + xp_69_0 + xp_64_0 + xp_63_0 + xp_60_1
 + xp_50_0 + xp_49_0 + xp_45_0 + xp_40_1 + xp_18_0 + xp_17_0 + xp_14_0
 + xp_10_0 + xp_9_1 + xp_4_0 <= 35798.3193277311
 r_21: + xp_126_3 + xp_113_0 + xp_86_1 + xp_77_1 + xp_77_0 + xp_65_0
 + xp_38_0 + xp_20_0 + xp_0_0 <= 37866.6666666667
 r_22: + xp_126_2 + xp_124_0 + xp_105_0 + xp_98_1 + xp_94_0 + xp_85_1
 + xp_83_0 + xp_68_1 + xp_58_1 + xp_48_1 + xp_41_0 + xp_32_2 + xp_32_1
 + xp_30_1 + xp_24_1 <= 37866.6666666667
 r_23: + xp_128_1 + xp_128_0 + xp_117_0 + xp_104_0 + xp_100_0 + xp_91_2
 + xp_91_0 + xp_84_0 + xp_82_0 + xp_80_1 + xp_80_0 + xp_79_2 + xp_79_0
 + xp_78_1 + xp_73_0 + xp_60_1 + xp_60_0 + xp_50_1 + xp_46_0 + xp_44_0
 + xp_40_1 + xp_40_0 + xp_34_1 + xp_21_0 + xp_18_1 + xp_15_0 + xp_9_1
 + xp_9_0 + xp_3_1 <= 37866.6666666667
 r_24: + xp_128_0 + xp_126_1 + xp_103_0 + xp_90_2 + xp_61_1 + xp_40_0
 + xp_39_0 + xp_22_0 + xp_18_1 + xp_13_0 + xp_12_1 + xp_1_1 <= 40000
 r_25: + xp_131_0 + xp_127_0 + xp_126_3 + xp_126_2 + xp_126_0 + xp_120_1
 + xp_94_0 + xp_90_1 + xp_90_0 + xp_89_0 + xp_77_0 + xp_74_0 + xp_61_0
 + xp_42_0 + xp_38_0 + xp_32_1 + xp_24_1 + xp_12_0 + xp_1_0
 <= 36778.2691092862
 r_26: + xp_128_1 + xp_121_0 + xp_112_0 + xp_108_1 + xp_107_0 + xp_81_0
 + xp_79_2 + xp_79_1 + xp_79_0 + xp_78_2 + xp_64_0 + xp_60_1 + xp_60_0
 + xp_47_0 + xp_40_1 + xp_37_0 + xp_29_0 + xp_25_0 + xp_18_0 + xp_17_1
 + xp_17_0 + xp_4_0 <= 35798.3193277311
 r_27: + xp_131_1 + xp_127_1 + xp_125_0 + xp_116_0 + xp_115_0 + xp_108_0
 + xp_98_1 + xp_86_1 + xp_85_1 + xp_77_1 + xp_72_0 + xp_67_0 + xp_65_0
 + xp_58_1 + xp_57_0 + xp_52_0 + xp_50_0 + xp_48_1 + xp_42_1 + xp_32_2
 + xp_28_1 + xp_23_0 + xp_19_1 + xp_14_0 + xp_11_0 <= 35798.3193277311
 r_28: + xp_126_1 + xp_126_0 + xp_120_0 + xp_116_1 + xp_115_1 + xp_109_0
 + xp_99_0 + xp_98_0 + xp_96_0 + xp_92_0 + xp_90_2 + xp_90_1 + xp_86_0
 + xp_85_0 + xp_75_0 + xp_58_0 + xp_54_0 + xp_48_0 + xp_32_0 + xp_28_0
 + xp_26_0 + xp_24_0 + xp_19_0 + xp_12_1 + xp_11_1 <= 35798.3193277311
 r_29: + xp_129_1 + xp_129_0 + xp_95_0 + xp_93_0 + xp_87_0 + xp_71_0
 + xp_62_0 + xp_49_0 + xp_45_0 + xp_10_0 + xp_9_1 + xp_9_0 + xp_1_1
 + xp_1_0 <= 35798.3193277311
 r_30: + xp_125_0 + xp_121_0 + xp_102_0 + xp_99_0 + xp_96_0 + xp_92_0
 + xp_57_0 + xp_37_0 + xp_26_0 + xp_23_0 + xp_11_1 + xp_11_0
 <= 35798.3193277311

Bounds
 0 <= xp_0_0 <= 222.761842389774
 0 <= xp_1_0 <= 137.888335959704
 0 <= xp_1_1 <= 34.4720839899259
 0 <= xp_2_0 <= 108.580842170435
 0 <= xp_3_0 <= 137.689219229076
 0 <= xp_3_1 <= 34.422304807269
 0 <= xp_4_0 <= 744.758796526035
 0 <= xp_5_0 <= 1022.775531665
 0 <= xp_6_0 <= 1691.68329861754
 0 <= xp_7_0 <= 602.577006062171
 0 <= xp_8_0 <= 1425.30244742463
 0 <= xp_9_0 <= 61.3030634420127
 0 <= xp_9_1 <= 40.8687089613418
 0 <= xp_10_0 <= 51.7703499632101
 0 <= xp_11_0 <= 31.3608850738676
 0 <= xp_11_1 <= 7.84022126846691
 0 <= xp_12_0 <= 1561.22450566938
 0 <= xp_12_1 <= 390.306126417345
 0 <= xp_13_0 <= 237.882269121817
 0 <= xp_14_0 <= 83.0565662630923
 0 <= xp_14_1 <= 124.584849394638
 0 <= xp_15_0 <= 478.751289203051
 0 <= xp_16_0 <= 2493.2525873508
 0 <= xp_17_0 <= 224.354776234796
 0 <= xp_17_1 <= 56.088694058699
 0 <= xp_18_0 <= 135.573603966156
 0 <= xp_18_1 <= 203.360405949235
 0 <= xp_19_0 <= 199.888307958913
 0 <= xp_19_1 <= 799.553231835654
 0 <= xp_20_0 <= 121.087861812989
 0 <= xp_21_0 <= 259.162869707656
 0 <= xp_22_0 <= 1163.2772747142
 0 <= xp_23_0 <= 49.0947188953999
 0 <= xp_24_0 <= 128.654297576843
 0 <= xp_24_1 <= 192.981446365264
 0 <= xp_25_0 <= 546.513201594801
 0 <= xp_26_0 <= 14.4981869488317
 0 <= xp_27_0 <= 319.084560830939
 0 <= xp_28_0 <= 126.065780078682
 0 <= xp_28_1 <= 504.263120314729
 0 <= xp_29_0 <= 2311.62079463131
 0 <= xp_30_0 <= 138.535465334244
 0 <= xp_30_1 <= 34.633866333561
 0 <= xp_31_0 <= 180.013969283133
 0 <= xp_32_0 <= 1275.60400037957
 0 <= xp_32_1 <= 425.201333459855
 0 <= xp_32_2 <= 425.201333459855
 0 <= xp_33_0 <= 7611.67259609327
 0 <= xp_34_0 <= 289.490836741392
 0 <= xp_34_1 <= 192.993891160928
 0 <= xp_35_0 <= 246.531402108459
 0 <= xp_36_0 <= 301.226279052764
 0 <= xp_37_0 <= 344.596391942617
 0 <= xp_38_0 <= 316.222257828165
 0 <= xp_39_0 <= 1486.03305026609
 0 <= xp_40_0 <= 641.603885265206
 0 <= xp_40_1 <= 160.400971316302
 0 <= xp_41_0 <= 75.4776857035743
 0 <= xp_42_0 <= 343.177685236894
 0 <= xp_42_1 <= 85.7944213092236
 0 <= xp_43_0 <= 464.750894080788
 0 <= xp_44_0 <= 433.141113093636
 0 <= xp_45_0 <= 40.1966899954732
 0 <= xp_46_0 <= 1516.46057566514
 0 <= xp_47_0 <= 830.192318760996
 0 <= xp_48_0 <= 2196.20775964122
 0 <= xp_48_1 <= 549.051939910304
 0 <= xp_49_0 <= 83.1934590153989
 0 <= xp_50_0 <= 592.670948713441
 0 <= xp_50_1 <= 148.16773717836
 0 <= xp_51_0 <= 670.214470497278
 0 <= xp_52_0 <= 625.662102019323
 0 <= xp_53_0 <= 179.391729499921
 0 <= xp_54_0 <= 3488.71179253281
 0 <= xp_55_0 <= 1119.4715939761
 0 <= xp_56_0 <= 90.4736644789753
 0 <= xp_57_0 <= 194.636604188607
 0 <= xp_58_0 <= 2576.67005268815
 0 <= xp_58_1 <= 1717.78003512544
 0 <= xp_59_0 <= 10054.2126411123
 0 <= xp_60_0 <= 256.113894769919
 0 <= xp_60_1 <= 384.170842154879
 0 <= xp_61_0 <= 1371.5533749508
 0 <= xp_61_1 <= 914.368916633869
 0 <= xp_62_0 <= 123.950164815763
 0 <= xp_63_0 <= 99.6081444965224
 0 <= xp_63_1 <= 24.9020361241306
 0 <= xp_64_0 <= 939.270952758
 0 <= xp_65_0 <= 493.436148086846
 0 <= xp_66_0 <= 1586.8981191247
 0 <= xp_67_0 <= 382.179674848601
 0 <= xp_68_0 <= 278.34029982624
 0 <= xp_68_1 <= 1113.36119930496
 0 <= xp_69_0 <= 1623.3613704209
 0 <= xp_70_0 <= 596.66572812166
 0 <= xp_71_0 <= 66.9530006735746
 0 <= xp_72_0 <= 565.864858852683
 0 <= xp_73_0 <= 871.882384236177
 0 <= xp_74_0 <= 900.443190285592
 0 <= xp_75_0 <= 1666.2959154625
 0 <= xp_76_0 <= 1626.72146525024
 0 <= xp_77_0 <= 432.381980558118
 0 <= xp_77_1 <= 108.095495139529
 0 <= xp_78_0 <= 5288.65236863351
 0 <= xp_78_1 <= 15865.9571059005
 0 <= xp_78_2 <= 5288.65236863351
 0 <= xp_79_0 <= 603.995712767894
 0 <= xp_79_1 <= 201.331904255965
 0 <= xp_79_2 <= 201.331904255965
 0 <= xp_80_0 <= 170.443921417338
 0 <= xp_80_1 <= 42.6109803543344
 0 <= xp_81_0 <= 246.531402108459
 0 <= xp_82_0 <= 207.703639636052
 0 <= xp_83_0 <= 476.137882113562
 0 <= xp_84_0 <= 841.0815149672
 0 <= xp_85_0 <= 308.979386751582
 0 <= xp_85_1 <= 77.2448466878954
 0 <= xp_86_0 <= 129.624991638653
 0 <= xp_86_1 <= 32.4062479096632
 0 <= xp_87_0 <= 133.532657477222
 0 <= xp_88_0 <= 401.904675976411
 0 <= xp_89_0 <= 2099.06368468621
 0 <= xp_90_0 <= 12308.1393630442
 0 <= xp_90_1 <= 4102.71312101475
 0 <= xp_90_2 <= 4102.71312101475
 0 <= xp_91_0 <= 1543.36622389121
 0 <= xp_91_1 <= 514.455407963736
 0 <= xp_91_2 <= 514.455407963736
 0 <= xp_92_0 <= 63.2195619743046
 0 <= xp_93_0 <= 123.327925032551
 0 <= xp_94_0 <= 224.13076991284
 0 <= xp_95_0 <= 57.9927477953267
 0 <= xp_96_0 <= 109.140857975325
 0 <= xp_97_0 <= 498.787410222466
 0 <= xp_98_0 <= 108.219943096172
 0 <= xp_98_1 <= 27.054985774043
 0 <= xp_99_0 <= 15.4937706019703
 0 <= xp_100_0 <= 475.951210178598
 0 <= xp_101_0 <= 236.451117620431
 0 <= xp_102_0 <= 70.9353352861292
 0 <= xp_103_0 <= 1362.45622932025
 0 <= xp_104_0 <= 124.821300512259
 0 <= xp_105_0 <= 1372.03872198171
 0 <= xp_106_0 <= 39.2011063423345
 0 <= xp_107_0 <= 425.612011716775
 0 <= xp_108_0 <= 321.399292824486
 0 <= xp_108_1 <= 321.399292824486
 0 <= xp_108_2 <= 160.699646412243
 0 <= xp_109_0 <= 548.890157566669
 0 <= xp_109_1 <= 365.926771711113
 0 <= xp_110_0 <= 126.065780078682
 0 <= xp_111_0 <= 2767.97145163875
 0 <= xp_112_0 <= 4430.16058453205
 0 <= xp_113_0 <= 402.589139737944
 0 <= xp_114_0 <= 2269.18404141628
 0 <= xp_115_0 <= 167.258053727294
 0 <= xp_115_1 <= 41.8145134318235
 0 <= xp_116_0 <= 120.91363467369
 0 <= xp_116_1 <= 30.2284086684224
 0 <= xp_117_0 <= 1839.02967928206
 0 <= xp_118_0 <= 2985.50647984954
 0 <= xp_119_0 <= 59.4238992967135
 0 <= xp_120_0 <= 1642.61346931347
 0 <= xp_120_1 <= 410.653367328367
 0 <= xp_121_0 <= 71.4953510910197
 0 <= xp_122_0 <= 2152.76297797738
 0 <= xp_123_0 <= 486.280390579912
 0 <= xp_124_0 <= 130.297010604521
 0 <= xp_125_0 <= 25.8229510032839
 0 <= xp_126_0 <= 4803.57912323303
 0 <= xp_126_1 <= 9607.15824646607
 0 <= xp_126_2 <= 4803.57912323303
 0 <= xp_126_3 <= 4803.57912323303
 0 <= xp_127_0 <= 327.534577086953
 0 <= xp_127_1 <= 218.356384724636
 0 <= xp_128_0 <= 307.486011271874
 0 <= xp_128_1 <= 76.8715028179684
 0 <= xp_129_0 <= 18.5427455397075
 0 <= xp_129_1 <= 27.8141183095612
 0 <= xp_130_0 <= 381.993002913638
 0 <= xp_131_0 <= 435.953636913753
 0 <= xp_131_1 <= 290.635757942502

End
